NAME : sample6
TYPE : TSP
DIMENSION : 20
EDGE_WEIGHT_TYPE : EUC_2D
NODE_COORD_SECTION
	0	-13,33	-1
	1	5,85	-2,01
	2	17,85	11,15
	3	0,42	-0,69
	4	-18,36	5,39
	5	-16,78	11,18
	6	-4,12	-9,11
	7	0,19	-19,82
	8	10,73	-19,84
	9	16,87	3,24
	10	-6,94	-18,21
	11	-15,88	0,22
	12	-13,89	-8,05
	13	6,68	16,46
	14	2,4	10,17
	15	-16,79	-2,58
	16	-4,63	4,95
	17	-17,46	16,88
	18	12,47	3,95
	19	9,59	10,65
EOF